
===== New CPLEX run =====
Instance: /home/yorig/tuner/mpils-tests/instances/miplib/easy/lotsize.mps
Config: /scratch/yorig/mpils-results-grid-seconds-5-watchdog/easy/24proc/seed-5/4_lotsize_seed-5_20260504_011421/expansion/config_param_CPXPARAM_MIP_Strategy_Branch_1_iter_1.prm
========================

Selected objective sense:  MINIMIZE
Selected objective  name:  R1921
Selected RHS        name:  B
Selected bound      name:  BOUND
Wall watchdog: enabled factor=1 grace=1 limit=6 seconds
Version identifier: 22.1.2.0 | 2024-11-26 | 0edbb82fd
CPXPARAM_Threads                                 8
CPXPARAM_Parallel                                1
CPXPARAM_MIP_Strategy_Branch                     1
CPXPARAM_MIP_Cuts_Cliques                        -1
CPXPARAM_MIP_Cuts_Implied                        1
CPXPARAM_MIP_Limits_GomoryCand                   25
CPXPARAM_MIP_Cuts_Gomory                         1
CPXPARAM_MIP_Cuts_PathCut                        2
CPXPARAM_MIP_Cuts_Disjunctive                    -1
CPXPARAM_Emphasis_MIP                            1
CPXPARAM_TimeLimit                               5
Tried aggregator 1 time.
MIP Presolve eliminated 595 rows and 0 columns.
MIP Presolve added 1190 rows and 0 columns.
MIP Presolve modified 10 coefficients.
Reduced MIP has 2515 rows, 2985 columns, and 7755 nonzeros.
Reduced MIP has 1195 binaries, 0 generals, 0 SOSs, and 0 indicators.
Presolve time = 0.00 sec. (4.53 ticks)
Probing fixed 0 vars, tightened 5487 bounds.
Probing time = 0.01 sec. (18.38 ticks)
Tried aggregator 2 times.
Detecting symmetries...
MIP Presolve modified 1206 coefficients.
Aggregator did 10 substitutions.
Reduced MIP has 2505 rows, 2975 columns, and 7735 nonzeros.
Reduced MIP has 1195 binaries, 0 generals, 0 SOSs, and 0 indicators.
Presolve time = 0.00 sec. (6.66 ticks)
Probing fixed 0 vars, tightened 2401 bounds.
Probing time = 0.00 sec. (6.41 ticks)
Clique table members: 190.
MIP emphasis: integer feasibility.
MIP search method: dynamic search.
Parallel mode: deterministic, using up to 8 threads.
Root relaxation solution time = 0.01 sec. (9.71 ticks)

        Nodes                                         Cuts/
   Node  Left     Objective  IInf  Best Integer    Best Bound    ItCnt     Gap

      0     0   348385.3466   472                 348385.3466      882         
      0     0   572993.6826   462                   Cuts: 726     1894         
      0     0   807159.4456   704                   Cuts: 726     2768         
      0     0   945132.1728   699                   Cuts: 726     3494         
*     0+    0                       1.01740e+07   945132.1728            90.71%
*     0+    0                      7973370.0000   945132.1728            88.15%
Detecting symmetries...
      0     2   945132.1728   699  7973370.0000   945132.1728     3494   88.15%
Elapsed time = 0.39 sec. (557.48 ticks, tree = 0.02 MB, solutions = 2)
    258   218  1182937.6764   443  7973370.0000   946321.1220    10425   88.13%
*   594+  425                      2859783.0000   946321.1220            66.91%
*   726+  544                      2712212.0000   946321.1220            65.11%
    804   573  1760738.4273   299  2712212.0000   946321.1220    21473   65.11%
   1249   873  1273412.8983   623  2712212.0000   959287.3339    32377   64.63%
*  1359+  895                      2144216.0000   959287.3339            55.26%
*  1377+  895                      2140133.0000   959287.3339            55.18%
*  1441+ 1067                      2140133.0000   959287.3339            55.18%
   1530  1109  1184283.4674   596  2140133.0000   959287.3339    41826   55.18%
*  1582+ 1100                      2140133.0000   959287.3339            55.18%
   2026  1509  1471968.6224   444  2140133.0000   959287.3339    53777   55.18%
   2540  1929  2128433.9200   317  2140133.0000   959287.3339    68064   55.18%
   3018  2311  1565179.9751   537  2140133.0000   959287.3339    78037   55.18%

Performing restart 1

Repeating presolve.
Tried aggregator 1 time.
MIP Presolve modified 1154 coefficients.
Reduced MIP has 2505 rows, 2975 columns, and 7735 nonzeros.
Reduced MIP has 1195 binaries, 0 generals, 0 SOSs, and 0 indicators.
Presolve time = 0.00 sec. (3.78 ticks)
Tried aggregator 1 time.
MIP Presolve modified 1007 coefficients.
Reduced MIP has 2505 rows, 2975 columns, and 7735 nonzeros.
Reduced MIP has 1195 binaries, 0 generals, 0 SOSs, and 0 indicators.
Presolve time = 0.00 sec. (5.12 ticks)
Represolve time = 0.02 sec. (20.61 ticks)
   3323     0  1074109.8436   783  2140133.0000     Cuts: 726    93796   49.81%
   3323     0  1170209.4588   718  2140133.0000     Cuts: 726    94584   45.32%
   3323     0  1235535.3266   739  2140133.0000     Cuts: 726    95295   42.27%
   3323     2  1235535.3266   739  2140133.0000  1235535.3266    95295   42.27%
   3339    18  1281581.0964   609  2140133.0000  1235546.0109    96115   42.27%
   3462   103  1347438.4238   738  2140133.0000  1235546.0109   106109   42.27%
Elapsed time = 4.03 sec. (5375.66 ticks, tree = 0.14 MB, solutions = 9)
*  4014+  486                      2008064.0000  1236181.0260            38.44%
   4069   462  1551623.7421   389  2008064.0000  1236181.0260   137136   38.44%
*  4189+  585                      1998675.0000  1236181.0260            38.15%
*  4191+  585                      1993700.0000  1236181.0260            38.00%
*  4222+  614                      1987681.0000  1236181.0260            37.81%
*  4222+  614                      1985991.0000  1236181.0260            37.75%
*  4229+  726                      1944045.0000  1236181.0260            36.41%
*  4229+  726                      1921527.0000  1236181.0260            35.67%

Cover cuts applied:  23
Implied bound cuts applied:  17
Flow cuts applied:  541
Mixed integer rounding cuts applied:  1108
Flow path cuts applied:  148
Multi commodity flow cuts applied:  17
Lift and project cuts applied:  8
Gomory fractional cuts applied:  2

Root node processing (before b&c):
  Real time             =    0.38 sec. (553.75 ticks)
Parallel b&c, 8 threads:
  Real time             =    4.62 sec. (6174.37 ticks)
  Sync time (average)   =    0.32 sec.
  Wait time (average)   =    0.01 sec.
                          ------------
Total (root+branch&cut) =    5.00 sec. (6728.12 ticks)
Gap: 35.67%
Upper bound: 1.92153e+06
Lower bound: 1.23618e+06
Termination status: Normal
End of CPLEX run. Time: 5.0047 seconds

===== New CPLEX run =====
Instance: /home/yorig/tuner/mpils-tests/instances/miplib/easy/lotsize.mps
Config: /scratch/yorig/mpils-results-grid-seconds-5-watchdog/easy/24proc/seed-5/4_lotsize_seed-5_20260504_011421/expansion/config_param_CPXPARAM_MIP_Limits_CutsFactor_1_iter_1.prm
========================

Selected objective sense:  MINIMIZE
Selected objective  name:  R1921
Selected RHS        name:  B
Selected bound      name:  BOUND
Wall watchdog: enabled factor=1 grace=1 limit=6 seconds
Version identifier: 22.1.2.0 | 2024-11-26 | 0edbb82fd
CPXPARAM_Threads                                 8
CPXPARAM_Parallel                                1
CPXPARAM_MIP_Cuts_Cliques                        -1
CPXPARAM_MIP_Cuts_Implied                        1
CPXPARAM_MIP_Limits_GomoryCand                   25
CPXPARAM_MIP_Cuts_Gomory                         1
CPXPARAM_MIP_Cuts_PathCut                        2
CPXPARAM_MIP_Cuts_Disjunctive                    -1
CPXPARAM_Emphasis_MIP                            1
CPXPARAM_TimeLimit                               5
CPXPARAM_MIP_Limits_CutsFactor                   1
Tried aggregator 1 time.
MIP Presolve eliminated 595 rows and 0 columns.
MIP Presolve added 1190 rows and 0 columns.
MIP Presolve modified 10 coefficients.
Reduced MIP has 2515 rows, 2985 columns, and 7755 nonzeros.
Reduced MIP has 1195 binaries, 0 generals, 0 SOSs, and 0 indicators.
Presolve time = 0.00 sec. (4.53 ticks)
Probing fixed 0 vars, tightened 5487 bounds.
Probing time = 0.01 sec. (18.38 ticks)
Tried aggregator 2 times.
Detecting symmetries...
MIP Presolve modified 1206 coefficients.
Aggregator did 10 substitutions.
Reduced MIP has 2505 rows, 2975 columns, and 7735 nonzeros.
Reduced MIP has 1195 binaries, 0 generals, 0 SOSs, and 0 indicators.
Presolve time = 0.00 sec. (6.66 ticks)
Probing fixed 0 vars, tightened 2401 bounds.
Probing time = 0.00 sec. (6.41 ticks)
Clique table members: 190.
MIP emphasis: integer feasibility.
MIP search method: dynamic search.
Parallel mode: deterministic, using up to 8 threads.
Root relaxation solution time = 0.01 sec. (9.71 ticks)

        Nodes                                         Cuts/
   Node  Left     Objective  IInf  Best Integer    Best Bound    ItCnt     Gap

      0     0   348385.3466   472                 348385.3466      882         
Detecting symmetries...
      0     2   348385.3466   472                 348385.3466      882         
Elapsed time = 0.06 sec. (74.91 ticks, tree = 0.02 MB, solutions = 0)
   1285  1089   975021.8994   406                 348693.3349     4857         
   3869  3407  2005431.8312     7                 348693.3349    12552         
*  4078  3738      integral     0  2017150.0000   348693.3349    13475   82.71%
*  4365  3949      integral     0  1981216.0000   348693.3349    14053   82.40%

Performing restart 1

Repeating presolve.
Tried aggregator 1 time.
MIP Presolve modified 1144 coefficients.
Reduced MIP has 2505 rows, 2975 columns, and 7735 nonzeros.
Reduced MIP has 1195 binaries, 0 generals, 0 SOSs, and 0 indicators.
Presolve time = 0.00 sec. (3.82 ticks)
Tried aggregator 1 time.
MIP Presolve modified 1044 coefficients.
Reduced MIP has 2505 rows, 2975 columns, and 7735 nonzeros.
Reduced MIP has 1195 binaries, 0 generals, 0 SOSs, and 0 indicators.
Presolve time = 0.00 sec. (5.12 ticks)
Represolve time = 0.01 sec. (16.81 ticks)
*  5034+    0                      1980664.0000   348693.3349            82.40%
   5034     0  -1.00000e+75     0  1980664.0000   348693.3349    17688   82.40%
   5134    86   367359.9756   475  1980664.0000   349937.2569    17953   82.33%
   6269  1085   743384.0929   421  1980664.0000   349937.2569    21471   82.33%
   7636  2325  1277261.7827   283  1980664.0000   349937.2569    25848   82.33%
   9534  4021   861607.0680   409  1980664.0000   350889.7776    31892   82.28%
*  9822  4284      integral     0  1948623.0000   350889.7776    32727   81.99%
* 10422  5153      integral     0  1942855.0000   350889.7776    35759   81.94%
* 10569+ 4895                      1720802.0000   350889.7776            79.61%
* 10643+ 5064                      1696160.0000   350889.7776            79.31%
* 10713+ 4895                      1688125.0000   350889.7776            79.21%
* 10963+ 5064                      1687567.0000   350889.7776            79.21%
* 11143+ 5547                      1684523.0000   350889.7776            79.17%
* 11215+ 5516                      1633576.0000   350889.7776            78.52%
* 11225+ 5414                      1628750.0000   350889.7776            78.46%
* 11369+ 5414                      1625197.0000   350889.7776            78.41%
  11484  5547  1449124.1891   225  1625197.0000   350889.7776    38267   78.41%
* 11532+ 5414                      1622518.0000   350889.7776            78.37%
* 11905+ 5535                      1622509.0000   350889.7776            78.37%
* 13298+ 7071                      1620249.0000   350889.7776            78.34%
  13544  7237   812663.3967   411  1620249.0000   350889.7776    43858   78.34%
  22322 15740  1003653.5027   323  1620249.0000   350889.7776    71221   78.34%
Elapsed time = 1.81 sec. (3083.48 ticks, tree = 25.40 MB, solutions = 29)
  31617 24458  1175865.1625   318  1620249.0000   350889.7776    97226   78.34%
* 38371+30548                      1619768.0000   350889.7776            78.34%
* 38550+30548                      1608625.0000   350889.7776            78.19%
* 38699+30548                      1579849.0000   350889.7776            77.79%
* 38868+30548                      1575176.0000   350889.7776            77.72%
  38927 31770  1546464.9116   123  1575176.0000   350889.7776   118977   77.72%
* 39073+30548                      1574139.0000   350889.7776            77.71%
* 39175+30548                      1571628.0000   350889.7776            77.67%
* 39455+30548                      1565099.0000   350889.7776            77.58%
* 39466+30548                      1561979.0000   350889.7776            77.54%
* 39556+30548                      1559996.0000   350889.7776            77.51%
* 40170+30548                      1557346.0000   350889.7776            77.47%
* 40335+30548                      1557234.0000   350889.7776            77.47%
* 41039+29918                      1556079.0000   350889.7776            77.45%
* 41044+30548                      1541664.0000   350889.7776            77.24%
* 41182+30548                      1536698.0000   350889.7776            77.17%
  43524 36077   507437.1712   460  1536698.0000   350889.7776   131471   77.17%
* 44903+30548                      1536661.0000   350889.7776            77.17%
* 46098+30548                      1532218.0000   350889.7776            77.10%
* 46131+30548                      1532076.0000   350889.7776            77.10%
* 46340+30548                      1532008.0000   350889.7776            77.10%
  47880 40012   965961.2319   349  1532008.0000   350889.7776   143784   77.10%
* 48230+30548                      1526990.0000   350889.7776            77.02%
* 48534+40302                      1525225.0000   350889.7776            76.99%
* 48535+40301                      1525188.0000   350889.7776            76.99%
* 48561+40301                      1522848.0000   350889.7776            76.96%

Implied bound cuts applied:  0
Flow path cuts applied:  0
Gomory fractional cuts applied:  0

Root node processing (before b&c):
  Real time             =    0.06 sec. (76.14 ticks)
Parallel b&c, 8 threads:
  Real time             =    4.95 sec. (7910.50 ticks)
  Sync time (average)   =    0.96 sec.
  Wait time (average)   =    0.00 sec.
                          ------------
Total (root+branch&cut) =    5.01 sec. (7986.65 ticks)
Gap: 76.96%
Upper bound: 1.52285e+06
Lower bound: 350890
Termination status: Normal
End of CPLEX run. Time: 5.00668 seconds
